(set-logic HORN)
(set-info :source |
  Benchmark: test_safe_2019/mochi/dotprod.ml
  Generated by MoCHi
|)
(set-info :status unknown)
(declare-fun |fail_22[0:0]| ( Int) Bool)
(declare-fun |sub[0:1]| ( Int  Int) Bool)
(declare-fun |dotprod_aux[0:4]| ( Int  Int  Int  Int  Int) Bool)
(assert (not (exists ((x0 Int)) (|fail_22[0:0]| x0))))
(assert (forall ((x0 Int)(x1 Int)(x2 Int)) (=> (and (|sub[0:1]| x2 x1) (or (>= 0 (+ 1 x1)) (>= x1 x2))) (|fail_22[0:0]| x0))))
(assert (forall ((x1 Int)(x3 Int)(x0 Int)(x2 Int)(x4 Int)) (=> (and (|dotprod_aux[0:4]| x0 x1 x2 x3 x4) (not (= x3 x0))) (|sub[0:1]| x1 x3))))
(assert (forall ((x4 Int)(x2 Int)(x5 Int)(x0 Int)(x1 Int)) (=> (and (= x0 0) (and (= x1 0) (and (<= 0 x2) (and (= x2 x4) (= x2 x5))))) (|dotprod_aux[0:4]| x4 x2 x5 x0 x1))))
(check-sat)
(get-model)
(exit)
